decision_x1=[0,4];
decision_x2=[0,4];
decision_x3=[0,4];
decision_x4=[0,4];
decision_x5=[0,4];
decision_x6=[0,4];
decision_x7=[0,4];
decision_x8=[0,4];
decision_x9=[0,4];
decision_x10=[0,4];
random_y1=[0,4];
random_y2=[0,4];
random_y3=[0,4];
random_y4=[0,4];
random_y5=[0,4];
constraint_x2_x1=[
0,1,4|
0,2,7.7|
0,3,2.1|
0,4,8.2|
1,0,7.2|
1,2,7.6|
1,3,5.3|
1,4,8|
2,0,4.8|
2,1,6.1|
2,3,4.8|
2,4,2.3|
3,0,6|
3,1,9.8|
3,2,1.2|
3,4,9|
4,0,8.9|
4,1,1.5|
4,2,5.2|
4,3,5.7|
];
constraint_x3_x1=[
0,1,6.7|
0,2,7.9|
0,3,4|
0,4,9.3|
1,0,8.2|
1,2,9.3|
1,3,2.2|
1,4,9.8|
2,0,7|
2,1,6.8|
2,3,3.2|
2,4,4.7|
3,0,5.7|
3,1,9.6|
3,2,5.7|
3,4,8.6|
4,0,9.3|
4,1,6.3|
4,2,9.8|
4,3,1.1|
];
constraint_x4_x3=[
0,1,9.9|
0,2,2.7|
0,3,0.69|
0,4,4.3|
1,0,3.6|
1,2,2|
1,3,7.1|
1,4,9.9|
2,0,7.2|
2,1,7.7|
2,3,3.5|
2,4,3.5|
3,0,9.7|
3,1,0.3|
3,2,1.3|
3,4,5.2|
4,0,2.5|
4,1,1.7|
4,2,8.9|
4,3,8.4|
];
constraint_x5_x1=[
0,1,7.6|
0,2,8.4|
0,3,8.8|
0,4,5.4|
1,0,2.8|
1,2,4.1|
1,3,2.8|
1,4,0.87|
2,0,8.4|
2,1,9.8|
2,3,0.44|
2,4,9.8|
3,0,7|
3,1,1.1|
3,2,6.8|
3,4,8.8|
4,0,5.6|
4,1,1.2|
4,2,5.2|
4,3,2.3|
];
constraint_x5_x3=[
0,1,4.2|
0,2,4|
0,3,7.6|
0,4,3.3|
1,0,5.8|
1,2,6.7|
1,3,6.6|
1,4,8.3|
2,0,5.4|
2,1,8.9|
2,3,6.4|
2,4,2|
3,0,0.68|
3,1,4.5|
3,2,6.6|
3,4,0.3|
4,0,9.3|
4,1,9.1|
4,2,4.8|
4,3,3.1|
];
constraint_x5_x4=[
0,1,3.2|
0,2,9.6|
0,3,0.61|
0,4,4.1|
1,0,3.2|
1,2,8.8|
1,3,8|
1,4,9.9|
2,0,9.9|
2,1,8|
2,3,3.2|
2,4,0.95|
3,0,1.8|
3,1,9.4|
3,2,2.4|
3,4,2.5|
4,0,8.2|
4,1,5.8|
4,2,1.8|
4,3,5.4|
];
constraint_x6_x1=[
0,1,2.4|
0,2,6.8|
0,3,5.9|
0,4,6.9|
1,0,1.1|
1,2,8.1|
1,3,7.9|
1,4,6.7|
2,0,9.1|
2,1,4.6|
2,3,5.4|
2,4,1.4|
3,0,1.9|
3,1,5|
3,2,9.3|
3,4,7.9|
4,0,4.5|
4,1,6.6|
4,2,5.8|
4,3,9.8|
];
constraint_x6_x2=[
0,1,3.1|
0,2,7.9|
0,3,6|
0,4,8.1|
1,0,6.7|
1,2,6.5|
1,3,3|
1,4,4.1|
2,0,0.23|
2,1,1.6|
2,3,9.6|
2,4,6|
3,0,2.6|
3,1,2.6|
3,2,1.9|
3,4,9|
4,0,8|
4,1,6.4|
4,2,5.1|
4,3,5.5|
];
constraint_x6_x3=[
0,1,7.5|
0,2,1.3|
0,3,9.4|
0,4,0.29|
1,0,4.1|
1,2,6|
1,3,8.9|
1,4,0.4|
2,0,6.2|
2,1,9.1|
2,3,0.075|
2,4,4.9|
3,0,0.55|
3,1,9.3|
3,2,3.8|
3,4,7.6|
4,0,1.6|
4,1,4.4|
4,2,4.4|
4,3,5.8|
];
constraint_x6_x4=[
0,1,3.2|
0,2,9|
0,3,7.6|
0,4,7.6|
1,0,0.19|
1,2,5.2|
1,3,3.5|
1,4,1.9|
2,0,0.84|
2,1,1.6|
2,3,0.18|
2,4,7.7|
3,0,1.9|
3,1,9.1|
3,2,2.3|
3,4,5.6|
4,0,0.82|
4,1,6.8|
4,2,9|
4,3,6.7|
];
constraint_x7_x1=[
0,1,7.8|
0,2,6.9|
0,3,1.4|
0,4,6.8|
1,0,5.9|
1,2,4.5|
1,3,1.4|
1,4,8.1|
2,0,1|
2,1,3.9|
2,3,6|
2,4,9.3|
3,0,1.4|
3,1,6.2|
3,2,9.8|
3,4,4.1|
4,0,7.5|
4,1,6.1|
4,2,4.5|
4,3,9|
];
constraint_x7_x2=[
0,1,1.7|
0,2,3.4|
0,3,8.3|
0,4,1|
1,0,5.2|
1,2,6.6|
1,3,7.1|
1,4,0.075|
2,0,8.2|
2,1,9.1|
2,3,4.8|
2,4,7.6|
3,0,7.7|
3,1,8|
3,2,4.9|
3,4,0.97|
4,0,4|
4,1,7.4|
4,2,3.5|
4,3,7.8|
];
constraint_x7_x3=[
0,1,6.8|
0,2,8.9|
0,3,8.5|
0,4,5.4|
1,0,3.5|
1,2,2.5|
1,3,0.45|
1,4,3.2|
2,0,3.8|
2,1,6.8|
2,3,3.7|
2,4,8.4|
3,0,5|
3,1,4.1|
3,2,6.6|
3,4,6.6|
4,0,5.3|
4,1,7.4|
4,2,4.9|
4,3,4.9|
];
constraint_x7_x6=[
0,1,0.52|
0,2,3.3|
0,3,1.8|
0,4,2.4|
1,0,8.4|
1,2,3|
1,3,9.2|
1,4,3.8|
2,0,4.9|
2,1,6.2|
2,3,9.2|
2,4,6.7|
3,0,8.1|
3,1,6.3|
3,2,4.4|
3,4,0.89|
4,0,8.8|
4,1,0.15|
4,2,2.9|
4,3,5|
];
constraint_x8_x3=[
0,1,9.2|
0,2,8.5|
0,3,9.5|
0,4,6.8|
1,0,5.2|
1,2,2.8|
1,3,8.3|
1,4,0.77|
2,0,4.7|
2,1,9.9|
2,3,2.2|
2,4,0.17|
3,0,2.4|
3,1,8.8|
3,2,6.6|
3,4,7.9|
4,0,8.7|
4,1,1.9|
4,2,6.9|
4,3,9.8|
];
constraint_x8_x4=[
0,1,7.5|
0,2,3.5|
0,3,4.7|
0,4,4.3|
1,0,4.1|
1,2,1.7|
1,3,2.4|
1,4,2.7|
2,0,1.3|
2,1,9.2|
2,3,9.4|
2,4,9.8|
3,0,4.7|
3,1,5.6|
3,2,9.1|
3,4,5.5|
4,0,1|
4,1,0.17|
4,2,5.4|
4,3,8.6|
];
constraint_x8_x6=[
0,1,5.1|
0,2,5.3|
0,3,6.9|
0,4,5|
1,0,8.9|
1,2,9.6|
1,3,1.3|
1,4,0.91|
2,0,5.7|
2,1,4.1|
2,3,6.4|
2,4,3.5|
3,0,5.6|
3,1,8|
3,2,10|
3,4,3|
4,0,4.3|
4,1,5.3|
4,2,6.3|
4,3,9.6|
];
constraint_x8_x7=[
0,1,6.4|
0,2,5.3|
0,3,1.8|
0,4,4.4|
1,0,0.19|
1,2,5.1|
1,3,2|
1,4,0.13|
2,0,7.6|
2,1,5.6|
2,3,2.7|
2,4,3.2|
3,0,2.4|
3,1,3.2|
3,2,6|
3,4,1.2|
4,0,1.3|
4,1,2.4|
4,2,3.7|
4,3,8.6|
];
constraint_x9_x4=[
0,1,7.2|
0,2,9.8|
0,3,5|
0,4,0.16|
1,0,9.7|
1,2,9.5|
1,3,5.7|
1,4,5.6|
2,0,8.4|
2,1,8.8|
2,3,5.9|
2,4,1.5|
3,0,7.7|
3,1,7.1|
3,2,0.086|
3,4,7.4|
4,0,8.8|
4,1,6.9|
4,2,6.7|
4,3,6.1|
];
constraint_x9_x7=[
0,1,4.2|
0,2,8.9|
0,3,1.6|
0,4,6.8|
1,0,2.2|
1,2,2.9|
1,3,6.4|
1,4,8.8|
2,0,8.4|
2,1,8.4|
2,3,5.6|
2,4,7.8|
3,0,5.4|
3,1,3|
3,2,2|
3,4,6.7|
4,0,2.1|
4,1,3|
4,2,5.6|
4,3,6.5|
];
constraint_x10_x2=[
0,1,3.1|
0,2,7|
0,3,9|
0,4,9.4|
1,0,1.3|
1,2,0.88|
1,3,0.32|
1,4,5.5|
2,0,4.3|
2,1,10|
2,3,3.9|
2,4,4.7|
3,0,5.4|
3,1,2.3|
3,2,8.5|
3,4,0.76|
4,0,1.5|
4,1,6.8|
4,2,9.6|
4,3,5.7|
];
constraint_x10_x5=[
0,1,5.9|
0,2,5.1|
0,3,3.2|
0,4,7.8|
1,0,8.2|
1,2,5.6|
1,3,0.093|
1,4,3.2|
2,0,1.8|
2,1,1.9|
2,3,3.4|
2,4,2.1|
3,0,8.4|
3,1,3.1|
3,2,6.9|
3,4,8.9|
4,0,7.2|
4,1,2.2|
4,2,8.6|
4,3,9.3|
];
constraint_x10_x7=[
0,1,2.5|
0,2,6|
0,3,1.7|
0,4,7.5|
1,0,0.43|
1,2,6|
1,3,7.1|
1,4,9.6|
2,0,8.7|
2,1,1.4|
2,3,7.8|
2,4,2.7|
3,0,9.7|
3,1,7.5|
3,2,7.7|
3,4,4.8|
4,0,1.1|
4,1,9.7|
4,2,4.9|
4,3,7.4|
];
constraint_x1_y1=[
0,0,2.3|
0,1,8.7|
0,2,5|
0,3,5.3|
0,4,8.2|
1,0,5.6|
1,1,9.7|
1,2,5.4|
1,3,6.6|
1,4,4.4|
2,0,8|
2,1,3|
2,2,8.3|
2,3,5.4|
2,4,9.1|
3,0,4.2|
3,1,6.5|
3,2,7.2|
3,3,4.2|
3,4,5.3|
4,0,4.2|
4,1,7.4|
4,2,4.8|
4,3,3.8|
4,4,7|
];
constraint_x2_y2=[
0,0,6.7|
0,1,4.3|
0,2,9.8|
0,3,3.6|
0,4,4.7|
1,0,2.4|
1,1,6.9|
1,2,2.1|
1,3,8.2|
1,4,3|
2,0,6.7|
2,1,6.7|
2,2,3.4|
2,3,9.6|
2,4,5.5|
3,0,5.4|
3,1,5.8|
3,2,5.4|
3,3,7.6|
3,4,2.3|
4,0,4.9|
4,1,6.4|
4,2,6.2|
4,3,2.5|
4,4,5.2|
];
constraint_x3_y3=[
0,0,5|
0,1,0.51|
0,2,2.6|
0,3,4.7|
0,4,2.2|
1,0,8|
1,1,1.9|
1,2,7.1|
1,3,6.5|
1,4,1.5|
2,0,0.22|
2,1,0.88|
2,2,6.2|
2,3,1.8|
2,4,8.5|
3,0,2.1|
3,1,3.2|
3,2,3|
3,3,7.6|
3,4,2.1|
4,0,1.2|
4,1,2.3|
4,2,3|
4,3,8.3|
4,4,6.2|
];
constraint_x4_y4=[
0,0,0.063|
0,1,3.6|
0,2,2.3|
0,3,8.5|
0,4,9|
1,0,2.6|
1,1,8.6|
1,2,0.93|
1,3,8.2|
1,4,5|
2,0,6.9|
2,1,9.8|
2,2,3.1|
2,3,5.4|
2,4,7.9|
3,0,2.7|
3,1,6.7|
3,2,1.3|
3,3,7.5|
3,4,2|
4,0,1.1|
4,1,3.8|
4,2,5|
4,3,3.1|
4,4,0.21|
];
constraint_x5_y5=[
0,0,4.4|
0,1,5.6|
0,2,4|
0,3,0.41|
0,4,5|
1,0,2|
1,1,2.5|
1,2,4.1|
1,3,9.4|
1,4,9.3|
2,0,0.27|
2,1,4.3|
2,2,3|
2,3,7.2|
2,4,0.14|
3,0,2.5|
3,1,9.3|
3,2,1.5|
3,3,5.2|
3,4,8.6|
4,0,9.6|
4,1,6.3|
4,2,5.3|
4,3,2.5|
4,4,5.1|
];
initial_distribution_y1=[0.35,0.087,0.22,0.11,0.24];
initial_distribution_y2=[0.052,0.18,0.2,0.27,0.3];
initial_distribution_y3=[0.28,0.22,0.25,0.11,0.15];
initial_distribution_y4=[0.036,0.22,0.28,0.3,0.16];
initial_distribution_y5=[0.25,0.11,0.15,0.39,0.094];
transition_y1=[
0.17,0.37,0.15,0.18,0.12|
0.0089,0.087,0.42,0.035,0.45|
0.3,0.24,0.27,0.044,0.15|
0.25,0.045,0.25,0.26,0.19|
0.3,0.063,0.28,0.13,0.22|
];
transition_y2=[
0.25,0.27,0.34,0.025,0.11|
0.29,0.19,0.39,0.046,0.076|
0.16,0.28,0.25,0.16,0.15|
0.18,0.22,0.22,0.3,0.082|
0.34,0.23,0.13,0.19,0.1|
];
transition_y3=[
0.28,0.25,0.15,0.27,0.041|
0.22,0.29,0.13,0.024,0.34|
0.2,0.33,0.17,0.091,0.22|
0.15,0.25,0.23,0.087,0.28|
0.32,0.18,0.24,0.1,0.15|
];
transition_y4=[
0.031,0.41,0.23,0.24,0.078|
0.12,0.17,0.35,0.08,0.28|
0.047,0.34,0.18,0.27,0.16|
0.11,0.19,0.31,0.1,0.28|
0.51,0.13,0.015,0.29,0.049|
];
transition_y5=[
0.18,0.37,0.014,0.24,0.2|
0.15,0.27,0.16,0.14,0.28|
0.26,0.17,0.24,0.083,0.26|
0.044,0.22,0.095,0.32,0.32|
0.11,0.32,0.14,0.13,0.3|
];
